% Instancia generada para Grupo 5
% Diámetros: [75, 100, 150] mm
% Capacidades: [795, 1414, 3181] l/min
% Demanda total: 4460 l/min
% Costos tipo a: 1714, tipo b: 1652
% Semilla: 248883

nP = 3;
nT = 14;
nC1 = 18;
nC2 = 46;
N = 81;

nA = 1122;
arc_from = [1, 1, 1, 1, 1, 1, 1, 1, 1, 1, 1, 1, 1, 1, 2, 2, 2, 2, 2, 2, 2, 2, 2, 2, 2, 2, 2, 2, 3, 3, 3, 3, 3, 3, 3, 3, 3, 3, 3, 3, 3, 3, 4, 4, 4, 4, 4, 4, 4, 4, 4, 4, 4, 4, 4, 4, 4, 4, 4, 4, 5, 5, 5, 5, 5, 5, 5, 5, 5, 5, 5, 5, 5, 5, 5, 5, 5, 5, 6, 6, 6, 6, 6, 6, 6, 6, 6, 6, 6, 6, 6, 6, 6, 6, 6, 6, 7, 7, 7, 7, 7, 7, 7, 7, 7, 7, 7, 7, 7, 7, 7, 7, 7, 7, 8, 8, 8, 8, 8, 8, 8, 8, 8, 8, 8, 8, 8, 8, 8, 8, 8, 8, 9, 9, 9, 9, 9, 9, 9, 9, 9, 9, 9, 9, 9, 9, 9, 9, 9, 9, 10, 10, 10, 10, 10, 10, 10, 10, 10, 10, 10, 10, 10, 10, 10, 10, 10, 10, 11, 11, 11, 11, 11, 11, 11, 11, 11, 11, 11, 11, 11, 11, 11, 11, 11, 11, 12, 12, 12, 12, 12, 12, 12, 12, 12, 12, 12, 12, 12, 12, 12, 12, 12, 12, 13, 13, 13, 13, 13, 13, 13, 13, 13, 13, 13, 13, 13, 13, 13, 13, 13, 13, 14, 14, 14, 14, 14, 14, 14, 14, 14, 14, 14, 14, 14, 14, 14, 14, 14, 14, 15, 15, 15, 15, 15, 15, 15, 15, 15, 15, 15, 15, 15, 15, 15, 15, 15, 15, 16, 16, 16, 16, 16, 16, 16, 16, 16, 16, 16, 16, 16, 16, 16, 16, 16, 16, 17, 17, 17, 17, 17, 17, 17, 17, 17, 17, 17, 17, 17, 17, 17, 17, 17, 17, 18, 18, 18, 18, 18, 18, 18, 18, 18, 18, 18, 18, 18, 18, 18, 18, 18, 18, 18, 18, 18, 18, 18, 18, 18, 18, 18, 18, 18, 18, 18, 18, 18, 18, 18, 18, 18, 18, 18, 18, 18, 18, 18, 18, 18, 18, 19, 19, 19, 19, 19, 19, 19, 19, 19, 19, 19, 19, 19, 19, 19, 19, 19, 19, 19, 19, 19, 19, 19, 19, 19, 19, 19, 19, 19, 19, 19, 19, 19, 19, 19, 19, 19, 19, 19, 19, 19, 19, 19, 19, 19, 19, 20, 20, 20, 20, 20, 20, 20, 20, 20, 20, 20, 20, 20, 20, 20, 20, 20, 20, 20, 20, 20, 20, 20, 20, 20, 20, 20, 20, 20, 20, 20, 20, 20, 20, 20, 20, 20, 20, 20, 20, 20, 20, 20, 20, 20, 20, 21, 21, 21, 21, 21, 21, 21, 21, 21, 21, 21, 21, 21, 21, 21, 21, 21, 21, 21, 21, 21, 21, 21, 21, 21, 21, 21, 21, 21, 21, 21, 21, 21, 21, 21, 21, 21, 21, 21, 21, 21, 21, 21, 21, 21, 21, 22, 22, 22, 22, 22, 22, 22, 22, 22, 22, 22, 22, 22, 22, 22, 22, 22, 22, 22, 22, 22, 22, 22, 22, 22, 22, 22, 22, 22, 22, 22, 22, 22, 22, 22, 22, 22, 22, 22, 22, 22, 22, 22, 22, 22, 22, 23, 23, 23, 23, 23, 23, 23, 23, 23, 23, 23, 23, 23, 23, 23, 23, 23, 23, 23, 23, 23, 23, 23, 23, 23, 23, 23, 23, 23, 23, 23, 23, 23, 23, 23, 23, 23, 23, 23, 23, 23, 23, 23, 23, 23, 23, 24, 24, 24, 24, 24, 24, 24, 24, 24, 24, 24, 24, 24, 24, 24, 24, 24, 24, 24, 24, 24, 24, 24, 24, 24, 24, 24, 24, 24, 24, 24, 24, 24, 24, 24, 24, 24, 24, 24, 24, 24, 24, 24, 24, 24, 24, 25, 25, 25, 25, 25, 25, 25, 25, 25, 25, 25, 25, 25, 25, 25, 25, 25, 25, 25, 25, 25, 25, 25, 25, 25, 25, 25, 25, 25, 25, 25, 25, 25, 25, 25, 25, 25, 25, 25, 25, 25, 25, 25, 25, 25, 25, 26, 26, 26, 26, 26, 26, 26, 26, 26, 26, 26, 26, 26, 26, 26, 26, 26, 26, 26, 26, 26, 26, 26, 26, 26, 26, 26, 26, 26, 26, 26, 26, 26, 26, 26, 26, 26, 26, 26, 26, 26, 26, 26, 26, 26, 26, 27, 27, 27, 27, 27, 27, 27, 27, 27, 27, 27, 27, 27, 27, 27, 27, 27, 27, 27, 27, 27, 27, 27, 27, 27, 27, 27, 27, 27, 27, 27, 27, 27, 27, 27, 27, 27, 27, 27, 27, 27, 27, 27, 27, 27, 27, 28, 28, 28, 28, 28, 28, 28, 28, 28, 28, 28, 28, 28, 28, 28, 28, 28, 28, 28, 28, 28, 28, 28, 28, 28, 28, 28, 28, 28, 28, 28, 28, 28, 28, 28, 28, 28, 28, 28, 28, 28, 28, 28, 28, 28, 28, 29, 29, 29, 29, 29, 29, 29, 29, 29, 29, 29, 29, 29, 29, 29, 29, 29, 29, 29, 29, 29, 29, 29, 29, 29, 29, 29, 29, 29, 29, 29, 29, 29, 29, 29, 29, 29, 29, 29, 29, 29, 29, 29, 29, 29, 29, 30, 30, 30, 30, 30, 30, 30, 30, 30, 30, 30, 30, 30, 30, 30, 30, 30, 30, 30, 30, 30, 30, 30, 30, 30, 30, 30, 30, 30, 30, 30, 30, 30, 30, 30, 30, 30, 30, 30, 30, 30, 30, 30, 30, 30, 30, 31, 31, 31, 31, 31, 31, 31, 31, 31, 31, 31, 31, 31, 31, 31, 31, 31, 31, 31, 31, 31, 31, 31, 31, 31, 31, 31, 31, 31, 31, 31, 31, 31, 31, 31, 31, 31, 31, 31, 31, 31, 31, 31, 31, 31, 31, 32, 32, 32, 32, 32, 32, 32, 32, 32, 32, 32, 32, 32, 32, 32, 32, 32, 32, 32, 32, 32, 32, 32, 32, 32, 32, 32, 32, 32, 32, 32, 32, 32, 32, 32, 32, 32, 32, 32, 32, 32, 32, 32, 32, 32, 32, 33, 33, 33, 33, 33, 33, 33, 33, 33, 33, 33, 33, 33, 33, 33, 33, 33, 33, 33, 33, 33, 33, 33, 33, 33, 33, 33, 33, 33, 33, 33, 33, 33, 33, 33, 33, 33, 33, 33, 33, 33, 33, 33, 33, 33, 33, 34, 34, 34, 34, 34, 34, 34, 34, 34, 34, 34, 34, 34, 34, 34, 34, 34, 34, 34, 34, 34, 34, 34, 34, 34, 34, 34, 34, 34, 34, 34, 34, 34, 34, 34, 34, 34, 34, 34, 34, 34, 34, 34, 34, 34, 34, 35, 35, 35, 35, 35, 35, 35, 35, 35, 35, 35, 35, 35, 35, 35, 35, 35, 35, 35, 35, 35, 35, 35, 35, 35, 35, 35, 35, 35, 35, 35, 35, 35, 35, 35, 35, 35, 35, 35, 35, 35, 35, 35, 35, 35, 35];
arc_to   = [4, 5, 6, 7, 8, 9, 10, 11, 12, 13, 14, 15, 16, 17, 4, 5, 6, 7, 8, 9, 10, 11, 12, 13, 14, 15, 16, 17, 4, 5, 6, 7, 8, 9, 10, 11, 12, 13, 14, 15, 16, 17, 18, 19, 20, 21, 22, 23, 24, 25, 26, 27, 28, 29, 30, 31, 32, 33, 34, 35, 18, 19, 20, 21, 22, 23, 24, 25, 26, 27, 28, 29, 30, 31, 32, 33, 34, 35, 18, 19, 20, 21, 22, 23, 24, 25, 26, 27, 28, 29, 30, 31, 32, 33, 34, 35, 18, 19, 20, 21, 22, 23, 24, 25, 26, 27, 28, 29, 30, 31, 32, 33, 34, 35, 18, 19, 20, 21, 22, 23, 24, 25, 26, 27, 28, 29, 30, 31, 32, 33, 34, 35, 18, 19, 20, 21, 22, 23, 24, 25, 26, 27, 28, 29, 30, 31, 32, 33, 34, 35, 18, 19, 20, 21, 22, 23, 24, 25, 26, 27, 28, 29, 30, 31, 32, 33, 34, 35, 18, 19, 20, 21, 22, 23, 24, 25, 26, 27, 28, 29, 30, 31, 32, 33, 34, 35, 18, 19, 20, 21, 22, 23, 24, 25, 26, 27, 28, 29, 30, 31, 32, 33, 34, 35, 18, 19, 20, 21, 22, 23, 24, 25, 26, 27, 28, 29, 30, 31, 32, 33, 34, 35, 18, 19, 20, 21, 22, 23, 24, 25, 26, 27, 28, 29, 30, 31, 32, 33, 34, 35, 18, 19, 20, 21, 22, 23, 24, 25, 26, 27, 28, 29, 30, 31, 32, 33, 34, 35, 18, 19, 20, 21, 22, 23, 24, 25, 26, 27, 28, 29, 30, 31, 32, 33, 34, 35, 18, 19, 20, 21, 22, 23, 24, 25, 26, 27, 28, 29, 30, 31, 32, 33, 34, 35, 36, 37, 38, 39, 40, 41, 42, 43, 44, 45, 46, 47, 48, 49, 50, 51, 52, 53, 54, 55, 56, 57, 58, 59, 60, 61, 62, 63, 64, 65, 66, 67, 68, 69, 70, 71, 72, 73, 74, 75, 76, 77, 78, 79, 80, 81, 36, 37, 38, 39, 40, 41, 42, 43, 44, 45, 46, 47, 48, 49, 50, 51, 52, 53, 54, 55, 56, 57, 58, 59, 60, 61, 62, 63, 64, 65, 66, 67, 68, 69, 70, 71, 72, 73, 74, 75, 76, 77, 78, 79, 80, 81, 36, 37, 38, 39, 40, 41, 42, 43, 44, 45, 46, 47, 48, 49, 50, 51, 52, 53, 54, 55, 56, 57, 58, 59, 60, 61, 62, 63, 64, 65, 66, 67, 68, 69, 70, 71, 72, 73, 74, 75, 76, 77, 78, 79, 80, 81, 36, 37, 38, 39, 40, 41, 42, 43, 44, 45, 46, 47, 48, 49, 50, 51, 52, 53, 54, 55, 56, 57, 58, 59, 60, 61, 62, 63, 64, 65, 66, 67, 68, 69, 70, 71, 72, 73, 74, 75, 76, 77, 78, 79, 80, 81, 36, 37, 38, 39, 40, 41, 42, 43, 44, 45, 46, 47, 48, 49, 50, 51, 52, 53, 54, 55, 56, 57, 58, 59, 60, 61, 62, 63, 64, 65, 66, 67, 68, 69, 70, 71, 72, 73, 74, 75, 76, 77, 78, 79, 80, 81, 36, 37, 38, 39, 40, 41, 42, 43, 44, 45, 46, 47, 48, 49, 50, 51, 52, 53, 54, 55, 56, 57, 58, 59, 60, 61, 62, 63, 64, 65, 66, 67, 68, 69, 70, 71, 72, 73, 74, 75, 76, 77, 78, 79, 80, 81, 36, 37, 38, 39, 40, 41, 42, 43, 44, 45, 46, 47, 48, 49, 50, 51, 52, 53, 54, 55, 56, 57, 58, 59, 60, 61, 62, 63, 64, 65, 66, 67, 68, 69, 70, 71, 72, 73, 74, 75, 76, 77, 78, 79, 80, 81, 36, 37, 38, 39, 40, 41, 42, 43, 44, 45, 46, 47, 48, 49, 50, 51, 52, 53, 54, 55, 56, 57, 58, 59, 60, 61, 62, 63, 64, 65, 66, 67, 68, 69, 70, 71, 72, 73, 74, 75, 76, 77, 78, 79, 80, 81, 36, 37, 38, 39, 40, 41, 42, 43, 44, 45, 46, 47, 48, 49, 50, 51, 52, 53, 54, 55, 56, 57, 58, 59, 60, 61, 62, 63, 64, 65, 66, 67, 68, 69, 70, 71, 72, 73, 74, 75, 76, 77, 78, 79, 80, 81, 36, 37, 38, 39, 40, 41, 42, 43, 44, 45, 46, 47, 48, 49, 50, 51, 52, 53, 54, 55, 56, 57, 58, 59, 60, 61, 62, 63, 64, 65, 66, 67, 68, 69, 70, 71, 72, 73, 74, 75, 76, 77, 78, 79, 80, 81, 36, 37, 38, 39, 40, 41, 42, 43, 44, 45, 46, 47, 48, 49, 50, 51, 52, 53, 54, 55, 56, 57, 58, 59, 60, 61, 62, 63, 64, 65, 66, 67, 68, 69, 70, 71, 72, 73, 74, 75, 76, 77, 78, 79, 80, 81, 36, 37, 38, 39, 40, 41, 42, 43, 44, 45, 46, 47, 48, 49, 50, 51, 52, 53, 54, 55, 56, 57, 58, 59, 60, 61, 62, 63, 64, 65, 66, 67, 68, 69, 70, 71, 72, 73, 74, 75, 76, 77, 78, 79, 80, 81, 36, 37, 38, 39, 40, 41, 42, 43, 44, 45, 46, 47, 48, 49, 50, 51, 52, 53, 54, 55, 56, 57, 58, 59, 60, 61, 62, 63, 64, 65, 66, 67, 68, 69, 70, 71, 72, 73, 74, 75, 76, 77, 78, 79, 80, 81, 36, 37, 38, 39, 40, 41, 42, 43, 44, 45, 46, 47, 48, 49, 50, 51, 52, 53, 54, 55, 56, 57, 58, 59, 60, 61, 62, 63, 64, 65, 66, 67, 68, 69, 70, 71, 72, 73, 74, 75, 76, 77, 78, 79, 80, 81, 36, 37, 38, 39, 40, 41, 42, 43, 44, 45, 46, 47, 48, 49, 50, 51, 52, 53, 54, 55, 56, 57, 58, 59, 60, 61, 62, 63, 64, 65, 66, 67, 68, 69, 70, 71, 72, 73, 74, 75, 76, 77, 78, 79, 80, 81, 36, 37, 38, 39, 40, 41, 42, 43, 44, 45, 46, 47, 48, 49, 50, 51, 52, 53, 54, 55, 56, 57, 58, 59, 60, 61, 62, 63, 64, 65, 66, 67, 68, 69, 70, 71, 72, 73, 74, 75, 76, 77, 78, 79, 80, 81, 36, 37, 38, 39, 40, 41, 42, 43, 44, 45, 46, 47, 48, 49, 50, 51, 52, 53, 54, 55, 56, 57, 58, 59, 60, 61, 62, 63, 64, 65, 66, 67, 68, 69, 70, 71, 72, 73, 74, 75, 76, 77, 78, 79, 80, 81, 36, 37, 38, 39, 40, 41, 42, 43, 44, 45, 46, 47, 48, 49, 50, 51, 52, 53, 54, 55, 56, 57, 58, 59, 60, 61, 62, 63, 64, 65, 66, 67, 68, 69, 70, 71, 72, 73, 74, 75, 76, 77, 78, 79, 80, 81];

demand = [0, 0, 0, 0, 0, 0, 0, 0, 0, 0, 0, 0, 0, 0, 0, 0, 0, 95, 96, 67, 42, 82, 58, 88, 82, 51, 71, 81, 57, 54, 50, 42, 78, 65, 57, 54, 48, 50, 93, 42, 87, 56, 58, 94, 56, 96, 76, 70, 63, 86, 68, 58, 61, 79, 55, 77, 73, 98, 65, 86, 56, 70, 85, 81, 85, 82, 91, 70, 76, 78, 98, 59, 53, 77, 44, 53, 98, 53, 80, 42, 64];

install_cost = array2d(1..1122, 1..3, [50, 62, 78, 20, 24, 78, 50, 62, 78, 50, 62, 32, 50, 62, 78, 20, 62, 32, 50, 62, 78, 20, 24, 32, 20, 24, 78, 20, 24, 32, 50, 62, 32, 50, 24, 32, 50, 62, 78, 50, 24, 32, 20, 62, 78, 50, 24, 32, 50, 62, 32, 50, 62, 78, 50, 62, 78, 50, 24, 78, 50, 24, 78, 20, 62, 32, 20, 24, 78, 50, 24, 32, 50, 24, 78, 20, 62, 78, 50, 62, 78, 50, 24, 32, 50, 62, 78, 50, 24, 78, 50, 62, 32, 20, 62, 32, 20, 62, 78, 50, 24, 78, 50, 62, 78, 50, 62, 78, 50, 24, 32, 50, 62, 32, 20, 62, 32, 50, 62, 78, 20, 24, 32, 50, 24, 78, 20, 24, 32, 20, 62, 78, 20, 62, 78, 20, 24, 78, 20, 24, 32, 20, 62, 78, 50, 62, 32, 50, 24, 78, 50, 24, 32, 20, 62, 32, 50, 24, 78, 20, 62, 32, 50, 24, 78, 20, 24, 78, 50, 24, 32, 50, 62, 32, 50, 62, 78, 50, 24, 32, 20, 24, 78, 20, 62, 78, 50, 62, 78, 20, 62, 78, 50, 24, 32, 20, 24, 78, 20, 62, 32, 20, 62, 32, 20, 24, 78, 50, 62, 32, 20, 62, 78, 50, 62, 78, 50, 24, 78, 20, 24, 78, 50, 24, 32, 50, 62, 32, 20, 24, 32, 20, 62, 32, 20, 62, 78, 50, 24, 78, 50, 62, 78, 20, 24, 32, 50, 24, 32, 20, 24, 78, 20, 24, 32, 50, 62, 32, 20, 24, 78, 50, 62, 78, 50, 62, 78, 20, 24, 78, 20, 24, 32, 20, 62, 32, 20, 24, 78, 20, 24, 78, 50, 62, 32, 50, 24, 78, 50, 62, 78, 20, 62, 78, 50, 24, 78, 50, 24, 32, 50, 62, 78, 50, 62, 78, 20, 62, 78, 50, 24, 32, 50, 62, 78, 20, 62, 32, 20, 62, 32, 20, 62, 78, 50, 62, 78, 20, 62, 32, 20, 24, 78, 50, 62, 32, 20, 62, 78, 50, 62, 32, 20, 24, 32, 20, 24, 32, 50, 62, 78, 20, 62, 78, 50, 24, 78, 50, 62, 32, 50, 24, 78, 20, 24, 32, 50, 62, 78, 50, 62, 78, 20, 62, 32, 20, 24, 32, 50, 62, 78, 20, 24, 78, 50, 24, 78, 50, 24, 32, 50, 62, 32, 20, 24, 78, 20, 62, 32, 50, 62, 78, 50, 24, 32, 20, 62, 78, 50, 62, 32, 20, 62, 78, 50, 62, 78, 20, 24, 32, 20, 24, 32, 20, 24, 78, 50, 24, 78, 50, 24, 32, 20, 62, 32, 50, 62, 78, 20, 62, 78, 50, 24, 78, 50, 62, 78, 20, 24, 78, 50, 62, 32, 50, 62, 78, 50, 62, 32, 50, 62, 32, 20, 62, 32, 20, 24, 78, 20, 24, 32, 50, 24, 78, 50, 62, 32, 20, 62, 32, 20, 24, 78, 50, 24, 32, 50, 62, 32, 20, 24, 78, 20, 62, 78, 50, 62, 32, 50, 62, 32, 20, 24, 78, 50, 24, 78, 20, 62, 32, 20, 62, 78, 50, 24, 32, 20, 62, 78, 50, 24, 78, 50, 24, 32, 50, 62, 32, 20, 24, 78, 50, 24, 78, 50, 24, 32, 20, 24, 78, 20, 24, 78, 20, 24, 78, 20, 62, 78, 50, 62, 78, 50, 62, 78, 50, 62, 32, 20, 62, 32, 20, 24, 78, 50, 24, 32, 20, 24, 78, 20, 62, 32, 50, 24, 78, 50, 24, 78, 20, 24, 32, 50, 62, 32, 50, 24, 78, 20, 62, 78, 50, 24, 78, 50, 24, 78, 50, 62, 32, 50, 24, 32, 50, 62, 32, 50, 62, 78, 50, 62, 32, 20, 62, 32, 50, 24, 78, 20, 62, 32, 50, 24, 32, 50, 24, 32, 20, 62, 78, 20, 24, 32, 20, 24, 32, 20, 62, 32, 20, 24, 78, 50, 24, 78, 20, 24, 32, 20, 62, 78, 50, 24, 78, 20, 62, 32, 50, 24, 32, 20, 62, 78, 20, 62, 32, 20, 24, 32, 20, 24, 78, 50, 62, 78, 50, 62, 78, 20, 62, 78, 50, 62, 32, 20, 62, 32, 20, 24, 32, 20, 62, 78, 50, 24, 78, 20, 24, 32, 20, 24, 32, 20, 24, 78, 50, 24, 32, 50, 24, 78, 20, 24, 32, 20, 62, 32, 50, 62, 78, 20, 62, 32, 20, 62, 78, 20, 24, 32, 50, 62, 78, 20, 62, 32, 20, 62, 78, 20, 24, 78, 50, 62, 32, 50, 24, 78, 20, 24, 78, 50, 62, 32, 20, 62, 32, 50, 24, 32, 50, 24, 78, 20, 62, 32, 20, 62, 32, 50, 24, 78, 20, 24, 78, 20, 24, 32, 20, 24, 78, 50, 62, 32, 20, 24, 32, 50, 62, 78, 20, 24, 32, 50, 24, 78, 20, 62, 78, 20, 24, 32, 50, 62, 32, 50, 62, 32, 20, 24, 32, 20, 62, 78, 20, 24, 78, 20, 62, 78, 20, 24, 78, 20, 24, 78, 20, 24, 78, 50, 62, 32, 50, 62, 32, 20, 24, 78, 20, 24, 32, 50, 24, 78, 20, 62, 78, 50, 24, 78, 20, 62, 32, 20, 62, 78, 20, 24, 32, 20, 24, 78, 20, 24, 32, 20, 24, 32, 20, 24, 32, 50, 24, 78, 20, 24, 32, 50, 62, 32, 50, 62, 78, 50, 24, 78, 20, 62, 32, 50, 24, 32, 20, 62, 32, 50, 62, 32, 50, 62, 32, 50, 62, 78, 50, 62, 32, 20, 24, 78, 50, 62, 78, 50, 62, 78, 50, 62, 32, 50, 62, 32, 50, 62, 32, 20, 24, 78, 20, 24, 32, 20, 24, 78, 20, 24, 32, 20, 62, 32, 20, 62, 32, 50, 24, 78, 20, 24, 32, 20, 24, 78, 50, 24, 32, 20, 24, 32, 20, 24, 78, 20, 24, 32, 50, 62, 78, 20, 24, 32, 50, 62, 32, 20, 62, 32, 50, 62, 78, 20, 62, 32, 20, 24, 32, 20, 62, 32, 20, 62, 32, 50, 62, 32, 50, 24, 32, 20, 24, 78, 50, 62, 78, 50, 62, 78, 20, 62, 78, 20, 62, 32, 20, 62, 78, 50, 62, 32, 20, 62, 78, 20, 62, 78, 50, 24, 32, 50, 62, 78, 20, 62, 32, 20, 62, 78, 20, 62, 32, 50, 24, 32, 50, 62, 32, 20, 24, 32, 20, 24, 78, 50, 62, 32, 50, 62, 32, 20, 24, 78, 20, 24, 32, 50, 62, 78, 20, 62, 32, 20, 24, 32, 20, 24, 78, 50, 24, 78, 50, 24, 78, 50, 62, 32, 20, 24, 78, 20, 24, 32, 20, 24, 78, 50, 62, 78, 50, 24, 78, 50, 24, 78, 20, 62, 32, 20, 62, 78, 20, 24, 32, 50, 24, 78, 20, 24, 78, 20, 62, 78, 50, 24, 32, 50, 24, 78, 50, 62, 78, 20, 62, 78, 20, 62, 78, 20, 62, 78, 50, 62, 78, 50, 24, 78, 20, 24, 32, 20, 62, 32, 20, 62, 32, 50, 24, 78, 20, 24, 32, 20, 62, 32, 20, 62, 78, 20, 62, 78, 50, 24, 32, 20, 62, 32, 50, 24, 78, 20, 24, 78, 50, 62, 32, 20, 24, 32, 50, 24, 78, 50, 62, 32, 20, 24, 32, 20, 62, 32, 50, 24, 78, 20, 62, 78, 20, 24, 78, 20, 62, 78, 50, 62, 78, 20, 24, 32, 20, 24, 78, 20, 24, 32, 50, 62, 78, 20, 62, 78, 50, 62, 32, 20, 24, 78, 20, 24, 32, 20, 62, 32, 50, 24, 78, 50, 62, 32, 20, 62, 32, 20, 62, 32, 50, 62, 32, 50, 62, 32, 50, 24, 32, 20, 24, 78, 20, 24, 78, 20, 24, 32, 20, 24, 32, 20, 62, 78, 20, 24, 32, 50, 24, 78, 20, 62, 32, 20, 24, 78, 20, 62, 78, 20, 62, 78, 50, 24, 32, 50, 62, 78, 20, 24, 78, 20, 24, 78, 20, 24, 32, 20, 24, 32, 20, 62, 78, 20, 24, 32, 20, 62, 78, 20, 62, 78, 50, 24, 78, 50, 62, 78, 50, 24, 78, 20, 24, 32, 20, 62, 78, 20, 62, 32, 20, 24, 32, 20, 24, 32, 20, 24, 32, 50, 62, 32, 20, 24, 32, 20, 24, 78, 50, 24, 78, 50, 24, 32, 20, 24, 32, 20, 24, 78, 50, 24, 32, 20, 24, 32, 20, 24, 32, 50, 62, 32, 50, 62, 78, 20, 24, 78, 20, 24, 78, 20, 62, 78, 20, 62, 78, 20, 62, 78, 20, 24, 32, 20, 24, 32, 50, 62, 78, 20, 24, 32, 50, 62, 78, 20, 24, 32, 50, 24, 32, 50, 62, 32, 50, 62, 32, 20, 62, 32, 20, 62, 32, 50, 24, 32, 20, 62, 32, 20, 24, 32, 50, 24, 78, 50, 62, 78, 50, 62, 32, 20, 62, 78, 20, 62, 78, 20, 62, 78, 50, 62, 78, 50, 24, 78, 20, 62, 78, 50, 62, 32, 50, 62, 78, 20, 24, 32, 20, 24, 78, 20, 24, 78, 20, 24, 32, 50, 24, 32, 50, 62, 32, 20, 24, 78, 20, 62, 32, 50, 62, 32, 20, 24, 32, 50, 62, 32, 50, 62, 32, 20, 62, 78, 20, 62, 32, 20, 24, 32, 20, 24, 32, 20, 24, 32, 20, 62, 32, 20, 24, 78, 20, 24, 78, 20, 24, 78, 50, 24, 78, 20, 62, 32, 50, 24, 78, 20, 24, 32, 20, 24, 32, 20, 62, 78, 20, 24, 78, 20, 62, 32, 20, 24, 32, 50, 62, 32, 50, 62, 78, 50, 24, 78, 50, 62, 78, 20, 62, 78, 20, 24, 32, 20, 62, 78, 50, 24, 78, 20, 24, 32, 50, 62, 32, 50, 62, 78, 50, 24, 78, 20, 62, 78, 20, 24, 78, 20, 62, 32, 20, 62, 78, 20, 62, 78, 20, 24, 32, 20, 24, 78, 50, 24, 78, 50, 62, 78, 50, 62, 78, 50, 62, 32, 50, 24, 78, 20, 24, 32, 20, 24, 78, 50, 24, 32, 50, 62, 78, 20, 24, 78, 50, 24, 32, 20, 62, 78, 50, 62, 78, 20, 24, 78, 20, 62, 32, 50, 24, 32, 20, 24, 32, 20, 24, 32, 50, 62, 32, 20, 62, 32, 20, 62, 78, 50, 24, 78, 20, 24, 32, 50, 24, 32, 20, 24, 78, 20, 62, 32, 20, 24, 32, 20, 62, 32, 20, 24, 32, 50, 62, 32, 50, 24, 78, 20, 24, 32, 20, 24, 78, 50, 62, 32, 50, 62, 78, 20, 24, 78, 50, 24, 78, 50, 62, 32, 50, 24, 32, 20, 24, 78, 50, 62, 32, 20, 24, 32, 20, 62, 78, 50, 62, 78, 20, 62, 78, 20, 24, 32, 20, 62, 32, 50, 24, 32, 50, 24, 78, 20, 24, 78, 20, 62, 32, 20, 24, 32, 50, 24, 32, 20, 24, 78, 50, 62, 32, 50, 24, 78, 20, 62, 32, 20, 24, 32, 50, 24, 32, 20, 62, 32, 50, 62, 78, 50, 24, 32, 20, 62, 78, 50, 24, 32, 50, 24, 32, 20, 62, 78, 20, 62, 32, 50, 24, 32, 50, 62, 78, 20, 62, 78, 20, 24, 32, 20, 24, 32, 20, 24, 32, 20, 24, 32, 50, 62, 78, 20, 62, 78, 50, 24, 32, 50, 62, 78, 20, 24, 78, 50, 24, 78, 50, 24, 78, 50, 62, 78, 20, 62, 32, 20, 62, 32, 20, 62, 32, 50, 62, 32, 50, 62, 32, 50, 24, 32, 20, 62, 78, 50, 24, 32, 20, 24, 78, 50, 24, 78, 20, 62, 32, 50, 62, 78, 20, 62, 32, 50, 62, 78, 20, 24, 32, 50, 24, 32, 20, 62, 78, 20, 62, 78, 50, 62, 78, 20, 62, 32, 20, 62, 32, 50, 62, 32, 20, 24, 32, 50, 62, 78, 50, 24, 78, 20, 24, 32, 50, 24, 78, 50, 62, 78, 50, 24, 32, 50, 24, 32, 20, 62, 78, 50, 24, 78, 20, 24, 78, 50, 24, 78, 50, 24, 32, 20, 24, 78, 20, 24, 32, 50, 62, 32, 20, 62, 32, 50, 24, 32, 20, 62, 32, 50, 24, 78, 50, 62, 32, 50, 24, 78, 20, 62, 32, 50, 62, 32, 50, 62, 78, 50, 24, 32, 20, 62, 78, 20, 24, 32, 20, 62, 78, 20, 62, 32, 20, 62, 78, 20, 62, 32, 50, 62, 32, 20, 24, 78, 50, 62, 78, 50, 24, 78, 20, 24, 32, 50, 62, 78, 20, 24, 32, 50, 62, 78, 50, 24, 32, 50, 62, 32, 50, 62, 78, 20, 24, 32, 50, 62, 32, 20, 62, 32, 50, 62, 78, 50, 24, 78, 50, 62, 32, 20, 62, 32, 50, 24, 78, 20, 24, 78, 20, 24, 32, 20, 62, 32, 50, 62, 32, 50, 62, 78, 20, 24, 32, 50, 24, 78, 50, 24, 78, 20, 24, 32, 20, 24, 32, 20, 62, 78, 50, 24, 32, 20, 62, 78, 50, 62, 32, 50, 62, 78, 50, 24, 78, 20, 62, 78, 20, 62, 32, 50, 62, 78, 20, 62, 78, 20, 24, 78, 50, 62, 78, 20, 62, 78, 20, 62, 78, 50, 24, 32, 50, 24, 32, 20, 24, 32, 20, 24, 32, 20, 24, 78, 20, 24, 78, 20, 24, 78, 20, 24, 78, 50, 62, 78, 20, 62, 78, 20, 62, 78, 20, 24, 78, 20, 62, 32, 50, 62, 32, 20, 62, 78, 50, 24, 32, 50, 62, 32, 50, 24, 78, 20, 24, 32, 50, 24, 78, 20, 62, 78, 20, 24, 78, 20, 62, 32, 20, 62, 78, 20, 62, 32, 50, 62, 78, 20, 62, 78, 20, 24, 78, 20, 62, 32, 50, 24, 32, 20, 24, 78, 50, 62, 78, 20, 24, 32, 50, 62, 32, 50, 62, 32, 20, 24, 32, 20, 62, 32, 20, 24, 78, 50, 62, 32, 50, 24, 32, 50, 24, 32, 50, 62, 32, 50, 24, 32, 20, 62, 78, 20, 24, 32, 20, 62, 32, 20, 62, 32, 50, 24, 32, 50, 24, 32, 20, 24, 78, 20, 62, 32, 20, 62, 78, 20, 62, 78, 20, 24, 78, 50, 62, 78, 20, 62, 32, 20, 62, 32, 50, 24, 78, 50, 62, 78, 20, 62, 32, 20, 62, 32, 50, 62, 78, 20, 62, 78, 50, 24, 32, 50, 24, 32, 50, 62, 78, 50, 24, 78, 20, 24, 32, 20, 24, 32, 20, 24, 78, 50, 62, 32, 20, 62, 78, 50, 62, 78, 20, 62, 78, 50, 24, 78, 50, 24, 78, 50, 24, 32, 20, 62, 78, 20, 62, 78, 50, 24, 32, 50, 24, 78, 20, 62, 78, 20, 24, 32, 50, 62, 32, 50, 24, 32, 20, 62, 78, 50, 62, 32, 50, 62, 32, 20, 24, 32, 20, 24, 78, 20, 62, 78, 50, 62, 32, 20, 62, 78, 50, 62, 32, 20, 24, 78, 20, 62, 32, 20, 62, 78, 20, 24, 78, 20, 62, 78, 50, 24, 32, 20, 24, 78, 50, 62, 78, 50, 24, 78, 50, 62, 32, 50, 62, 32, 20, 24, 32, 20, 62, 32, 20, 24, 78, 20, 24, 32, 50, 24, 32, 50, 62, 78, 20, 24, 32, 50, 62, 78, 50, 24, 78, 20, 62, 78, 50, 62, 32, 20, 24, 32, 50, 24, 78, 50, 62, 32, 20, 62, 78, 50, 24, 32, 50, 24, 32, 50, 62, 78, 20, 24, 32, 20, 24, 32, 20, 62, 78, 20, 24, 78, 20, 24, 32, 20, 24, 78, 50, 24, 78, 20, 24, 32, 20, 24, 78, 20, 24, 32, 20, 62, 32, 20, 62, 78, 50, 24, 32, 50, 62, 32, 50, 24, 78, 50, 24, 78, 50, 24, 78, 50, 24, 78, 20, 62, 32, 20, 24, 32, 20, 24, 32, 20, 62, 78, 50, 62, 32, 20, 62, 32, 20, 62, 78, 50, 24, 32, 20, 24, 32, 20, 62, 78, 50, 62, 78, 20, 62, 32, 50, 24, 32, 20, 62, 78, 20, 62, 32, 50, 24, 32, 20, 62, 32, 50, 62, 32, 50, 62, 78, 50, 24, 78, 50, 62, 78, 20, 24, 78, 50, 24, 32, 50, 24, 32, 50, 24, 32, 50, 24, 32, 20, 62, 78, 20, 24, 78, 20, 62, 32, 20, 62, 32, 20, 24, 32, 20, 24, 32, 20, 62, 32, 50, 24, 78, 20, 24, 32, 20, 24, 32, 20, 62, 78, 50, 62, 32, 20, 24, 78, 50, 24, 32, 50, 24, 32, 50, 24, 32, 20, 62, 78, 50, 62, 78, 50, 62, 32, 50, 62, 78, 20, 62, 32, 50, 24, 78, 20, 62, 78, 20, 24, 32, 20, 62, 78, 50, 62, 32, 50, 62, 78, 20, 24, 32, 50, 62, 78, 50, 62, 78, 20, 62, 78, 20, 24, 32, 20, 24, 78, 20, 62, 78, 20, 62, 32, 50, 24, 32, 50, 62, 78, 50, 24, 78, 20, 62, 78, 20, 24, 78, 50, 24, 78, 50, 62, 32, 20, 24, 78, 20, 62, 78, 50, 62, 78, 50, 24, 32, 50, 24, 32, 20, 62, 32, 20, 24, 78, 20, 24, 32, 50, 62, 78, 50, 62, 78, 20, 62, 78, 50, 24, 78, 20, 24, 78, 50, 24, 32, 50, 62, 32, 20, 62, 32, 50, 62, 78, 20, 24, 32, 20, 62, 32, 50, 24, 32, 20, 62, 78, 50, 24, 32, 20, 62, 78, 20, 24, 78, 50, 62, 78, 20, 62, 78, 50, 62, 32, 20, 24, 32, 20, 24, 78, 50, 62, 32, 50, 62, 32, 50, 24, 78, 20, 24, 32, 50, 62, 32, 50, 24, 78, 50, 24, 32, 20, 24, 32, 50, 62, 78, 50, 24, 32, 20, 24, 32, 50, 62, 78, 50, 24, 32, 20, 24, 78, 20, 24, 32, 20, 24, 78, 50, 62, 78, 50, 24, 78, 50, 24, 32, 50, 24, 78, 20, 62, 78, 20, 24, 78, 20, 62, 78, 50, 24, 32, 20, 62, 78, 50, 24, 78, 20, 62, 78, 50, 24, 32, 50, 62, 32, 50, 24, 32, 20, 24, 78, 50, 24, 32, 20, 24, 78, 50, 62, 78, 20, 24, 32, 50, 62, 78, 50, 24, 78, 50, 62, 78, 20, 24, 32, 20, 24, 78, 20, 62, 78, 50, 62, 32, 20, 24, 78, 50, 62, 78, 50, 24, 78, 50, 62, 78, 50, 24, 78, 50, 24, 78, 50, 62, 78, 20, 62, 32, 20, 62, 78, 50, 24, 78, 20, 24, 32, 20, 62, 32, 50, 24, 32, 20, 24, 78, 20, 62, 78, 50, 24, 32, 20, 24, 78, 20, 62, 78, 50, 24, 32, 50, 24, 78, 50, 62, 78, 50, 62, 78, 50, 24, 78, 50, 24, 32, 20, 24, 32, 50, 24, 32, 50, 24, 78, 20, 62, 32, 50, 62, 78, 20, 62, 32, 20, 24, 78, 50, 24, 32, 20, 62, 78, 50, 62, 78, 50, 24, 78, 50, 62, 32, 20, 24, 78, 20, 24, 78, 20, 62, 78, 50, 24, 32, 20, 24, 32, 20, 24, 32, 20, 62, 78, 50, 24, 32, 50, 24, 32, 20, 24, 78, 20, 62, 32, 50, 24, 78, 50, 24, 78, 20, 24, 78, 50, 62, 32, 20, 62, 78, 50, 24, 78, 50, 24, 78, 50, 24, 78, 50, 24, 32, 20, 62, 32, 50, 62, 78, 20, 24, 32, 50, 62, 78, 20, 24, 78, 50, 62, 78, 20, 62, 32, 50, 62, 78, 20, 24, 78, 20, 62, 78, 20, 24, 32, 20, 62, 32, 50, 62, 32, 50, 62, 78, 50, 62, 32, 20, 62, 78, 50, 24, 78, 50, 62, 78, 20, 62, 78, 50, 62, 32, 20, 62, 32, 20, 24, 32, 20, 24, 78, 20, 62, 78, 50, 24, 78, 50, 24, 78, 50, 62, 32, 50, 62, 78, 50, 62, 32, 20, 62, 32, 50, 24, 32, 20, 62, 32, 20, 24, 78, 50, 62, 78, 20, 24, 32, 20, 24, 32, 20, 62, 32, 50, 62, 32, 20, 62, 78, 20, 24, 78, 50, 62, 78, 20, 24, 78, 20, 62, 78, 50, 24, 32, 50, 24, 32, 20, 24, 78, 20, 24, 78, 20, 24, 32, 50, 24, 32, 50, 62, 32, 20, 62, 32, 50, 24, 32, 50, 24, 78, 50, 24, 32, 50, 24, 78, 50, 62, 78, 20, 24, 78, 50, 24, 32, 50, 24, 32, 20, 24, 32, 20, 24, 32, 20, 62, 78, 20, 24, 78, 50, 62, 32, 50, 24, 78, 20, 24, 78]);
trans_cost   = [7.21, 7.69, 5.11, 7.74, 10.68, 8.67, 9.0, 9.68, 7.86, 9.54, 5.38, 13.81, 6.82, 9.43, 8.77, 5.2, 7.26, 9.9, 5.43, 7.91, 5.61, 8.99, 5.9, 5.0, 8.91, 7.71, 3.33, 10.64, 8.0, 5.89, 6.76, 6.76, 10.87, 7.06, 4.72, 7.67, 7.07, 7.36, 9.87, 6.66, 8.4, 10.81, 8.41, 6.3, 6.26, 9.45, 7.58, 6.77, 8.28, 6.62, 8.96, 11.94, 6.43, 7.38, 6.67, 12.47, 6.85, 5.28, 7.62, 8.82, 9.97, 7.91, 9.3, 6.64, 9.91, 9.98, 9.23, 4.85, 7.53, 12.01, 9.25, 5.89, 9.41, 7.92, 7.23, 11.4, 5.64, 4.72, 8.06, 4.0, 9.39, 9.9, 10.89, 5.33, 7.15, 3.66, 11.16, 8.11, 9.43, 11.45, 11.04, 8.11, 6.41, 7.62, 7.73, 7.6, 8.74, 9.82, 7.05, 9.03, 8.67, 9.94, 8.62, 6.41, 8.22, 6.26, 5.73, 8.07, 7.95, 8.23, 7.84, 8.28, 5.62, 6.38, 7.8, 7.82, 11.8, 7.67, 5.0, 8.28, 7.75, 8.27, 10.98, 4.4, 8.1, 10.02, 5.59, 9.03, 6.53, 7.2, 7.25, 8.32, 6.29, 7.4, 8.02, 8.2, 10.84, 9.69, 8.45, 7.65, 10.67, 6.89, 7.87, 6.01, 10.53, 10.96, 7.27, 9.56, 8.04, 5.98, 10.32, 7.39, 11.21, 7.22, 5.15, 4.7, 8.12, 9.29, 4.08, 7.02, 8.33, 7.5, 9.21, 12.26, 10.91, 6.93, 8.09, 2.17, 9.37, 8.54, 7.12, 9.87, 6.31, 6.56, 7.55, 11.22, 10.11, 6.71, 5.55, 7.84, 6.84, 7.61, 9.41, 8.12, 8.52, 9.92, 8.43, 4.22, 3.02, 8.72, 9.69, 6.7, 8.74, 10.97, 10.78, 11.3, 6.76, 10.27, 8.25, 9.8, 8.27, 7.16, 8.52, 11.34, 7.82, 10.12, 8.73, 9.92, 8.09, 10.94, 6.4, 2.57, 9.68, 9.3, 7.81, 6.85, 8.35, 5.9, 8.43, 6.8, 8.7, 8.26, 9.28, 6.23, 8.33, 4.39, 4.75, 7.08, 4.82, 8.49, 7.9, 8.67, 9.15, 5.23, 10.44, 9.49, 7.76, 5.45, 7.99, 7.3, 9.55, 8.31, 2.94, 9.89, 8.98, 8.14, 8.55, 7.71, 8.75, 6.99, 7.92, 6.38, 8.76, 8.85, 5.1, 9.34, 7.69, 5.4, 9.37, 7.4, 6.06, 7.81, 8.61, 8.02, 8.89, 9.64, 7.31, 7.88, 6.75, 7.83, 9.72, 9.24, 6.22, 5.05, 7.81, 8.07, 6.04, 7.26, 9.48, 10.88, 8.75, 7.7, 8.28, 7.44, 11.68, 7.29, 11.34, 8.52, 6.57, 6.57, 9.63, 4.77, 3.61, 3.15, 8.59, 7.72, 5.85, 6.59, 8.06, 9.34, 6.27, 9.94, 7.39, 8.1, 9.19, 8.24, 6.49, 12.71, 5.81, 9.81, 7.34, 9.48, 6.08, 7.25, 6.36, 6.39, 8.92, 9.33, 8.18, 8.91, 2.97, 8.24, 7.05, 7.56, 10.84, 9.45, 7.95, 6.98, 8.27, 8.73, 10.19, 4.3, 7.65, 9.45, 12.86, 4.42, 9.0, 5.58, 7.58, 7.13, 7.9, 8.18, 5.7, 11.11, 12.56, 8.37, 8.52, 7.9, 7.16, 5.05, 3.72, 11.23, 2.91, 6.4, 7.56, 10.45, 8.25, 6.46, 8.82, 6.26, 11.67, 6.33, 6.4, 8.84, 6.71, 8.96, 9.96, 10.75, 6.39, 8.1, 10.62, 8.98, 7.36, 7.02, 7.22, 6.53, 9.0, 8.2, 10.59, 11.51, 8.57, 7.53, 11.73, 10.39, 9.82, 9.4, 7.23, 7.93, 7.01, 7.21, 3.73, 8.36, 8.5, 7.72, 6.97, 8.62, 7.62, 7.96, 5.72, 9.81, 6.66, 7.7, 6.88, 12.42, 7.94, 10.34, 7.4, 9.96, 10.88, 6.51, 7.22, 5.96, 5.49, 11.84, 7.25, 7.27, 10.26, 11.2, 6.0, 9.35, 9.16, 7.66, 10.29, 9.94, 8.37, 9.26, 7.98, 8.83, 6.86, 10.12, 8.16, 7.46, 7.81, 8.78, 2.79, 7.92, 8.63, 8.88, 4.75, 4.96, 8.91, 6.95, 8.76, 12.34, 6.75, 4.4, 9.73, 8.63, 4.31, 6.94, 7.13, 6.57, 8.28, 8.44, 11.03, 11.67, 6.43, 6.27, 11.39, 6.46, 9.12, 10.83, 5.64, 8.73, 8.39, 9.92, 10.28, 7.88, 9.97, 8.83, 8.81, 11.39, 5.7, 9.5, 6.33, 2.28, 10.98, 4.71, 7.13, 3.99, 5.43, 6.9, 6.92, 5.37, 4.83, 3.39, 7.47, 6.16, 7.56, 4.26, 7.78, 8.42, 10.76, 9.32, 10.06, 7.22, 10.83, 8.13, 8.13, 7.36, 11.21, 9.8, 11.3, 11.64, 8.06, 10.37, 8.08, 5.43, 7.68, 11.48, 11.45, 7.36, 8.74, 6.89, 9.17, 6.36, 10.54, 7.99, 4.33, 8.38, 8.56, 8.22, 8.38, 9.44, 8.43, 9.53, 7.19, 9.37, 7.85, 7.66, 4.62, 10.43, 7.35, 9.36, 7.39, 8.9, 5.88, 6.26, 8.75, 9.62, 4.31, 9.35, 8.35, 5.88, 8.7, 8.75, 5.29, 8.62, 7.63, 2.13, 6.99, 10.0, 6.33, 6.94, 5.59, 8.19, 5.93, 6.13, 5.77, 5.36, 6.27, 5.53, 5.98, 11.81, 10.61, 7.63, 7.9, 6.28, 6.7, 5.2, 8.44, 8.98, 7.26, 8.22, 10.92, 8.1, 8.0, 10.03, 9.18, 10.71, 7.91, 7.33, 7.32, 11.05, 9.05, 8.69, 7.45, 9.74, 10.94, 9.53, 6.09, 8.54, 9.51, 5.71, 7.72, 5.91, 9.89, 9.51, 6.6, 9.86, 7.2, 9.13, 10.08, 8.74, 8.71, 9.46, 7.69, 8.09, 8.6, 5.27, 6.79, 8.32, 9.54, 6.32, 10.45, 6.48, 8.39, 10.31, 6.47, 7.38, 7.17, 10.86, 6.33, 5.76, 8.62, 6.6, 10.21, 5.85, 5.99, 9.54, 12.02, 7.36, 6.12, 5.2, 11.0, 8.19, 7.17, 5.83, 7.91, 12.41, 9.02, 7.04, 10.35, 8.64, 7.12, 10.11, 10.78, 11.18, 12.01, 4.98, 7.09, 8.89, 9.98, 7.37, 8.66, 4.93, 10.93, 6.19, 8.08, 4.79, 7.33, 7.8, 5.27, 6.37, 7.86, 9.17, 11.03, 6.4, 9.35, 7.27, 6.5, 7.63, 5.48, 4.01, 8.89, 6.43, 8.18, 8.26, 11.12, 9.09, 8.74, 7.09, 7.2, 7.68, 8.92, 11.16, 5.44, 7.3, 4.87, 8.63, 3.0, 8.23, 7.21, 7.16, 8.19, 8.47, 7.67, 4.93, 8.89, 7.15, 7.27, 4.72, 8.0, 8.34, 3.06, 10.28, 10.88, 9.05, 4.15, 7.66, 8.37, 6.93, 10.08, 8.05, 9.15, 9.18, 10.26, 5.81, 9.37, 8.61, 7.1, 6.38, 9.5, 8.38, 8.03, 7.6, 6.69, 9.88, 8.05, 2.74, 9.86, 6.08, 11.24, 7.81, 5.03, 8.12, 7.72, 6.5, 6.67, 11.05, 5.1, 9.46, 9.11, 10.42, 5.88, 8.23, 8.28, 5.86, 5.93, 6.09, 7.26, 5.27, 11.76, 7.58, 10.3, 6.18, 11.19, 9.84, 10.31, 7.5, 8.84, 11.74, 6.01, 5.78, 4.97, 5.59, 8.62, 8.72, 5.12, 7.21, 10.03, 4.26, 8.54, 8.59, 3.25, 6.07, 6.57, 9.22, 9.48, 9.46, 8.05, 11.56, 10.48, 9.6, 6.52, 9.06, 9.4, 9.77, 9.09, 7.35, 7.64, 7.02, 8.68, 8.61, 10.09, 9.49, 6.63, 8.37, 9.57, 8.58, 9.0, 7.59, 11.01, 5.32, 5.24, 9.52, 6.7, 4.9, 9.62, 7.27, 8.74, 10.14, 7.59, 5.47, 5.1, 6.71, 5.41, 8.06, 5.64, 9.42, 6.86, 11.52, 10.98, 7.36, 6.51, 9.18, 8.28, 6.06, 13.23, 7.17, 9.67, 11.33, 10.66, 9.21, 10.17, 9.74, 7.81, 6.34, 5.09, 8.52, 8.46, 5.92, 5.85, 9.75, 13.61, 5.51, 7.24, 9.95, 5.22, 7.15, 7.47, 3.1, 5.36, 5.0, 6.88, 6.41, 6.58, 7.98, 8.27, 10.43, 9.06, 8.75, 6.38, 9.16, 6.14, 9.3, 10.35, 9.22, 7.84, 8.51, 9.14, 3.98, 8.93, 5.86, 6.52, 5.46, 8.25, 9.95, 7.03, 7.51, 10.9, 9.07, 4.17, 5.9, 6.35, 8.82, 8.65, 7.31, 9.6, 9.76, 6.12, 5.75, 9.53, 11.32, 8.46, 6.79, 6.76, 9.92, 9.37, 8.3, 9.67, 6.91, 9.29, 6.41, 5.82, 8.69, 6.35, 5.83, 8.88, 8.41, 9.69, 7.85, 10.22, 6.71, 8.54, 9.59, 5.08, 9.01, 8.21, 7.52, 6.36, 6.23, 5.56, 9.74, 6.19, 7.68, 6.91, 9.21, 10.86, 8.6, 4.44, 7.63, 10.91, 6.05, 8.99, 8.64, 8.82, 8.94, 5.26, 1.47, 9.92, 7.22, 8.85, 6.98, 6.82, 7.22, 9.52, 8.49, 2.69, 5.81, 6.32, 11.01, 7.65, 7.95, 6.64, 9.64, 7.92, 7.93, 7.86, 10.2, 8.18, 7.92, 9.69, 6.42, 7.86, 10.41, 6.9, 12.38, 7.33, 9.52, 8.26, 10.29, 6.36, 4.15, 6.32, 10.44, 8.12, 7.97, 7.1, 8.31, 9.35, 8.72, 12.26, 8.28, 3.79, 9.16, 8.06, 10.25, 7.64, 6.18, 8.64, 8.89, 8.38, 7.24, 10.93, 8.28, 7.07, 7.13, 8.55, 9.57, 7.62, 7.79, 8.68, 4.65, 4.17, 2.83, 9.79, 9.53, 7.76, 4.69, 6.49, 4.95, 8.07, 4.7, 10.06, 10.97, 8.39, 6.95, 9.38, 8.05, 10.42, 6.74, 11.9, 6.89, 7.94, 9.02, 9.58, 9.27, 5.76, 5.84, 6.51, 5.9, 11.16, 6.64, 9.39, 9.95, 4.91, 8.48, 5.56, 6.89, 5.95, 6.09, 6.96, 7.51, 8.26, 9.54, 9.36, 4.56, 9.78, 7.04, 8.19, 8.89, 8.16, 12.17, 7.66, 4.02, 6.72, 7.67, 6.16, 7.39, 7.87, 9.91, 7.92, 10.43, 9.05, 3.71, 9.68, 7.51, 8.51, 6.82, 7.89, 7.19, 12.17, 6.14, 5.26, 9.81, 9.23, 9.56, 7.24, 9.94, 10.02, 9.39, 7.93, 10.45, 11.33, 7.98, 7.72, 7.36, 9.47, 8.28, 4.69, 9.17, 10.58, 7.53, 8.59, 7.79, 10.95, 6.31, 10.12, 4.8, 7.12, 11.3, 9.05, 1.39, 11.49, 3.88, 9.19, 8.93, 5.95, 6.17, 7.09, 10.87, 9.2, 6.61, 9.07, 7.17, 5.27, 3.57, 6.93, 8.48, 9.32, 13.46];
